
--- Job Toy_1.gms Start 01/13/22 13:59:45 35.1.0 r82a9585 WEX-WEI x86 64bit/MS Windows
--- Applying:
    C:\GAMS\35\gmsprmNT.txt
--- GAMS Parameters defined
    Input "Z:\MitarbeiterOrdner\Bernecker\GitHub Desktop Project Foulder\Quant-Reliability-Energy-Systems\NTC node model\Toy_1.gms"
    PageSize 0
    ScrDir "Z:\MitarbeiterOrdner\Bernecker\GitHub Desktop Project Foulder\Quant-Reliability-Energy-Systems\NTC node model\225a\"
    SysDir C:\GAMS\35\
    LogOption 3
    ErrMsg 1
    ErrorLog 99
    IDE 1
    LstTitleLeftAligned 1
Licensee: Small MUD - 5 User License                     S201118/0001AN-WIN
          BTU Cottbus-Senftenberg, FG Energiewirtschaft              DC5591
          C:\Users\Max Bernecker\Documents\GAMS\gamslice.txt
GAMS 35.1.0   Copyright (C) 1987-2021 GAMS Development. All rights reserved
--- Starting compilation
--- Toy_1.gms(96) 3 Mb
--- $echo File Z:\MitarbeiterOrdner\Bernecker\GitHub Desktop Project Foulder\Quant-Reliability-Energy-Systems\NTC node model\TEP.txt
--- Toy_1.gms(115) 3 Mb
--- call gdxxrw Data_input.xlsx @TEP.txt

GDXXRW           35.1.0 r82a9585 Released Apr 29, 2021 WEI x86 64bit/MS Window
Input file : Z:\MitarbeiterOrdner\Bernecker\GitHub Desktop Project Foulder\Quant-Reliability-Energy-Systems\NTC node model\Data_input.xlsx
Output file: Z:\MitarbeiterOrdner\Bernecker\GitHub Desktop Project Foulder\Quant-Reliability-Energy-Systems\NTC node model\Data_input.gdx
Total time = 2766 Ms
--- Toy_1.gms(116) 3 Mb
--- GDXin=Z:\MitarbeiterOrdner\Bernecker\GitHub Desktop Project Foulder\Quant-Reliability-Energy-Systems\NTC node model\Data_input.gdx
--- GDX File ($gdxIn) Z:\MitarbeiterOrdner\Bernecker\GitHub Desktop Project Foulder\Quant-Reliability-Energy-Systems\NTC node model\Data_input.gdx
--- Toy_1.gms(439) 14 Mb
--- Starting execution: elapsed 0:00:02.923
--- Toy_1.gms(226) 16 Mb
--- Generating MIP model Quant_reliab_res_EU
--- Toy_1.gms(401) 41 Mb
---   100,934 rows  76,862 columns  238,899 non-zeroes
--- Executing CPLEX (Solvelink=2): elapsed 0:00:03.661

IBM ILOG CPLEX   35.1.0 r82a9585 Released Apr 29, 2021 WEI x86 64bit/MS Window

--- GAMS/Cplex Link licensed for continuous and discrete problems.
--- Space for names approximately 5.06 Mb
--- Use option 'names no' to turn use of names off
--- GMO memory 31.26 Mb (peak 31.84 Mb)
--- Dictionary memory 0.00 Mb
--- Cplex 20.1.0.1 link memory 2.62 Mb (peak 11.93 Mb)
--- Starting Cplex

Version identifier: 20.1.0.1 | 2021-04-07 | 3a818710c
CPXPARAM_Advance                                 0
CPXPARAM_Threads                                 1
CPXPARAM_MIP_Display                             4
CPXPARAM_MIP_Tolerances_AbsMIPGap                0
Tried aggregator 1 time.
LP Presolve eliminated 84597 rows and 47780 columns.
Aggregator did 2094 substitutions.
Reduced LP has 14242 rows, 26988 columns, and 50758 nonzeros.
Presolve time = 0.08 sec. (73.79 ticks)
Initializing dual steep norms . . .

Iteration log . . .
Iteration:     1   Dual objective     =    7858314555.354865
Iteration:   612   Dual objective     =    8347699596.452243
Iteration:  1210   Dual objective     =    8477833621.826480
Iteration:  1775   Dual objective     =    8516602664.480226
Iteration:  2360   Dual objective     =    8934040582.470785
Iteration:  2917   Dual objective     =    8964154589.363375
Iteration:  3528   Dual objective     =    9178959603.049021
Iteration:  4087   Dual objective     =    9382148355.430994
Iteration:  4533   Dual objective     =    9645586616.764849
Iteration:  4944   Dual objective     =    9760113135.781023
Iteration:  5364   Dual objective     =   10032407435.101622
Iteration:  5824   Dual objective     =   10179446270.174089
Iteration:  6164   Dual objective     =   10213375924.861910
Iteration:  6607   Dual objective     =   10217015461.842733
Iteration:  6901   Dual objective     =   10217188963.219391
Iteration:  7239   Dual objective     =   10217476412.555393
Iteration:  7413   Dual objective     =   10217524726.720013

--- LP status (1): optimal.
--- Cplex Time: 0.19sec (det. 309.17 ticks)


Optimal solution found
Objective:  10217524930.157761

--- Reading solution for model Quant_reliab_res_EU
--- Toy_1.gms(401) 41 Mb  3 secs
--- Executing after solve: elapsed 0:00:06.917
--- Toy_1.gms(422) 41 Mb
--- GDX File (execute_unload) Z:\MitarbeiterOrdner\Bernecker\GitHub Desktop Project Foulder\Quant-Reliability-Energy-Systems\NTC node model\check_Toy_1.gdx
--- Toy_1.gms(427) 41 Mb

GDXXRW           35.1.0 r82a9585 Released Apr 29, 2021 WEI x86 64bit/MS Window
Input file : Z:\MitarbeiterOrdner\Bernecker\GitHub Desktop Project Foulder\Quant-Reliability-Energy-Systems\NTC node model\check_Toy_1.gdx
Output file: Z:\MitarbeiterOrdner\Bernecker\GitHub Desktop Project Foulder\Quant-Reliability-Energy-Systems\NTC node model\Output_toy_1.xlsx

*** Status: Normal completion
--- Job Toy_1.gms Stop 01/13/22 13:59:53 elapsed 0:00:07.857
